\ SCIP STATISTICS
\   Problem name     : /mnt/d/dev/Cutting-Plane-Generators/files/plane.lp
\   Variables        : 2 (0 binary, 2 integer, 0 implicit integer, 0 continuous)
\   Constraints      : 2
Minimize
 Obj: +11 x -13.1 y
Subject to
 c0: 0.219512 x + -1.056911 y >= -5.93496
 c1: -0.032520 y >= -0.227642
 a1: -11 x +13 y <= -10
 a2: +1 x +10 y <= +90
Bounds
Generals
 x y
End
